This is Ipopt version 3.10.0, running with linear solver ma27.

Number of nonzeros in equality constraint Jacobian...:        0
Number of nonzeros in inequality constraint Jacobian.:       48
Number of nonzeros in Lagrangian Hessian.............:        0

Total number of variables............................:        6
                     variables with only lower bounds:        0
                variables with lower and upper bounds:        6
                     variables with only upper bounds:        0
Total number of equality constraints.................:        0
Total number of inequality constraints...............:        8
        inequality constraints with only lower bounds:        0
   inequality constraints with lower and upper bounds:        0
        inequality constraints with only upper bounds:        8

iter    objective    inf_pr   inf_du lg(mu)  ||d||  lg(rg) alpha_du alpha_pr  ls
   0  7.6646323e+00 2.25e+00 1.34e+00   0.0 0.00e+00    -  0.00e+00 0.00e+00   0
   1  9.4057202e+00 1.48e+00 1.05e+01  -0.5 1.54e+00    -  4.53e-01 4.66e-01f  1
   2  9.6960621e+00 6.97e-01 8.13e+00  -0.4 9.08e-01    -  9.17e-01 5.58e-01f  1
   3  1.2209446e+01 4.88e-01 1.88e+01  -0.3 9.64e-01    -  6.59e-01 5.82e-01h  1
   4  1.3838480e+01 1.38e-01 3.09e+00  -0.5 1.04e+00    -  7.92e-01 9.75e-01h  1
   5  1.4842211e+01 4.79e-02 1.69e+00  -1.2 5.27e-01    -  9.89e-01 7.31e-01h  1
   6  1.4855441e+01 9.64e-04 1.77e+00  -1.9 7.86e-01    -  1.00e+00 7.86e-01h  1
   7  1.4663967e+01 3.49e-02 7.98e-01  -2.7 4.77e-01    -  1.00e+00 2.60e-01f  1
   8  1.4424438e+01 7.23e-03 4.59e+00  -2.9 3.27e-01    -  1.00e+00 7.54e-01h  1
   9  1.4486368e+01 4.14e-03 2.89e+00  -3.1 2.39e-01    -  1.00e+00 9.01e-01h  1
iter    objective    inf_pr   inf_du lg(mu)  ||d||  lg(rg) alpha_du alpha_pr  ls
  10  1.4557207e+01 4.50e-04 6.52e-01  -2.9 1.26e-01    -  1.00e+00 1.00e+00h  1
  11  1.4560001e+01 0.00e+00 2.67e-01  -4.4 1.68e-02    -  1.00e+00 9.24e-01h  1
  12  1.4557122e+01 1.35e-04 1.93e-01  -6.3 2.93e-03    -  1.00e+00 9.78e-01h  1
  13  1.4561390e+01 6.27e-05 1.46e-01  -6.8 2.90e-03    -  1.00e+00 9.99e-01h  1
  14  1.4560207e+01 0.00e+00 3.83e-01  -8.4 1.09e-02    -  1.00e+00 1.00e+00h  1
  15  1.4559607e+01 7.27e-05 3.55e-02  -9.7 8.71e-03    -  1.00e+00 1.00e+00h  1
  16  1.4559283e+01 4.24e-05 6.10e-02 -11.0 8.72e-04    -  1.00e+00 1.00e+00H  1
  17  1.4560143e+01 2.76e-06 9.92e-02 -11.0 9.22e-04    -  1.00e+00 5.00e-01h  2
  18  1.4558658e+01 9.48e-05 7.71e-02 -11.0 3.01e-04    -  1.00e+00 1.00e+00h  1
  19  1.4557403e+01 9.53e-05 2.27e-01 -11.0 3.70e-04    -  1.00e+00 1.00e+00H  1
iter    objective    inf_pr   inf_du lg(mu)  ||d||  lg(rg) alpha_du alpha_pr  ls
  20  1.4559882e+01 3.10e-07 8.10e-02 -11.0 6.36e-04    -  1.00e+00 1.00e+00h  1
  21  1.4559133e+01 3.04e-06 1.15e-01 -11.0 6.70e-03    -  1.00e+00 1.00e+00h  1
  22  1.4559179e+01 4.04e-05 5.92e-02 -11.0 3.49e-03    -  1.00e+00 1.00e+00h  1
  23  1.4559118e+01 0.00e+00 1.98e-01 -11.0 5.10e-03    -  1.00e+00 1.00e+00h  1
  24  1.4558873e+01 1.78e-04 4.26e-02 -11.0 4.16e-03    -  1.00e+00 1.00e+00h  1
